
Starting CP-SAT solver v9.15.6755
Parameters: random_seed: 2026074377 max_time_in_seconds: 2500 log_search_progress: true cp_model_presolve: true linearization_level: 2 num_search_workers: 4 cp_model_probing_level: 2 symmetry_level: 2

Initial satisfaction model '': (model_fingerprint: 0x1c4193ed5e4a09e5)
#Variables: 724 (608 primary variables)
  - 724 Booleans in [0,1]
#kBoolAnd: 110 (#enforced: 110) (#literals: 330)
#kBoolOr: 110 (#enforced: 110) (#literals: 220)
#kExactlyOne: 87 (#literals: 261)
#kLinear1: 32 (#enforced: 6)
#kLinear2: 336 (#enforced: 336) (#complex_domain: 110)
#kLinear3: 1'600 (#enforced: 6)
#kLinearN: 1'132 (#enforced: 243) (#terms: 9'111)

Starting presolve at 0.00s
  6.47e-04s  0.00e+00d  [DetectDominanceRelations] 
  8.78e-03s  0.00e+00d  [PresolveToFixPoint] #num_loops=3 #num_dual_strengthening=1 
  3.51e-05s  0.00e+00d  [ExtractEncodingFromLinear] #potential_supersets=91 
  3.07e-04s  0.00e+00d  [DetectDuplicateColumns] 
  9.93e-05s  0.00e+00d  [DetectDuplicateConstraints] #duplicates=5 
[Symmetry] Graph for symmetry has 4'871 nodes and 15'716 arcs.
[Symmetry] Symmetry computation done. time: 0.00125277 dtime: 0.0018072
[SAT presolve] num removable Booleans: 220 / 628
[SAT presolve] num trivial clauses: 0
[SAT presolve] [0s] clauses:2'740 literals:7'450 vars:507 one_side_vars:67 simple_definition:1 singleton_clauses:0
[SAT presolve] [0.000224342s] clauses:2'739 literals:7'443 vars:507 one_side_vars:67 simple_definition:1 singleton_clauses:0
[SAT presolve] [0.000686971s] clauses:2'254 literals:6'624 vars:381 one_side_vars:75 simple_definition:66 singleton_clauses:0
  1.26e-04s  0.00e+00d  [DetectDuplicateConstraintsWithDifferentEnforcements] #without_enforcements=6 
  5.66e-03s  2.39e-03d  [Probe] #probed=1'308 #fixed_bools=10 #equiv=8 #new_binary_clauses=1'233 
  5.47e-04s  3.37e-04d  [MaxClique] Merged 595 constraints with 1'353 literals into 505 constraints with 1'205 literals
  8.41e-04s  0.00e+00d  [DetectDominanceRelations] 
  3.10e-03s  0.00e+00d  [PresolveToFixPoint] #num_loops=1 #num_dual_strengthening=1 
  1.19e-03s  0.00e+00d  [ProcessAtMostOneAndLinear] 
  9.90e-05s  0.00e+00d  [DetectDuplicateConstraints] #duplicates=4 
  1.01e-04s  0.00e+00d  [DetectDuplicateConstraintsWithDifferentEnforcements] 
  3.70e-03s  1.10e-04d  [DetectDominatedLinearConstraints] #relevant_constraints=823 #num_inclusions=545 #num_redundant=7 
  1.26e-04s  0.00e+00d  [DetectDifferentVariables] 
  7.72e-04s  8.08e-05d  [ProcessSetPPC] #relevant_constraints=2'987 #num_inclusions=71 
  2.82e-04s  3.38e-05d  [TransformClausesToExactlyOne] #num_amos=506 #num_clauses=1'666 #num_checked=1'666 
  5.31e-05s  0.00e+00d  [DetectEncodedComplexDomains] 
  4.84e-05s  0.00e+00d  [FindAlmostIdenticalLinearConstraints] 
  9.48e-04s  1.40e-03d  [FindBigAtMostOneAndLinearOverlap] 
  1.30e-03s  9.52e-04d  [FindBigVerticalLinearOverlap] #blocks=8 #saved_nz=344 
  1.76e-04s  2.64e-04d  [FindBigHorizontalLinearOverlap] #linears=451 
  3.09e-04s  2.68e-05d  [MergeClauses] #num_collisions=10 #num_merges=10 #num_saved_literals=50 
  8.27e-04s  0.00e+00d  [DetectDominanceRelations] 
  3.38e-03s  0.00e+00d  [PresolveToFixPoint] #num_loops=2 #num_dual_strengthening=1 
  8.18e-04s  0.00e+00d  [DetectDominanceRelations] 
  3.05e-03s  0.00e+00d  [PresolveToFixPoint] #num_loops=1 #num_dual_strengthening=1 
  1.89e-04s  0.00e+00d  [DetectDuplicateColumns] 
  9.25e-05s  0.00e+00d  [DetectDuplicateConstraints] 
[Symmetry] Graph for symmetry has 4'497 nodes and 13'684 arcs.
[Symmetry] Symmetry computation done. time: 0.000993728 dtime: 0.00139308
[SAT presolve] num removable Booleans: 93 / 507
[SAT presolve] num trivial clauses: 0
[SAT presolve] [0s] clauses:2'204 literals:6'499 vars:484 one_side_vars:153 simple_definition:94 singleton_clauses:0
[SAT presolve] [0.000216396s] clauses:2'196 literals:6'305 vars:484 one_side_vars:194 simple_definition:83 singleton_clauses:0
[SAT presolve] [0.000301136s] clauses:2'185 literals:6'294 vars:478 one_side_vars:196 simple_definition:65 singleton_clauses:0
  1.66e-04s  0.00e+00d  [DetectDuplicateConstraintsWithDifferentEnforcements] 
  6.03e-03s  2.26e-03d  [Probe] #probed=1'346 #new_binary_clauses=1'044 
  5.08e-04s  4.95e-04d  [MaxClique] Merged 535 constraints with 1'198 literals into 529 constraints with 1'196 literals
  8.13e-04s  0.00e+00d  [DetectDominanceRelations] 
  3.05e-03s  0.00e+00d  [PresolveToFixPoint] #num_loops=1 #num_dual_strengthening=1 
  1.12e-03s  0.00e+00d  [ProcessAtMostOneAndLinear] 
  1.18e-04s  0.00e+00d  [DetectDuplicateConstraints] 
  9.71e-05s  0.00e+00d  [DetectDuplicateConstraintsWithDifferentEnforcements] 
  6.14e-04s  5.01e-05d  [DetectDominatedLinearConstraints] #relevant_constraints=801 #num_inclusions=279 
  1.35e-04s  0.00e+00d  [DetectDifferentVariables] 
  7.17e-04s  6.98e-05d  [ProcessSetPPC] #relevant_constraints=3'088 #num_inclusions=97 
  2.94e-04s  3.41e-05d  [TransformClausesToExactlyOne] #num_amos=526 #num_clauses=1'706 #num_checked=1'706 
  1.68e-04s  0.00e+00d  [DetectEncodedComplexDomains] 
  4.07e-05s  1.90e-07d  [FindAlmostIdenticalLinearConstraints] #num_tested_pairs=2 
  7.88e-04s  9.95e-04d  [FindBigAtMostOneAndLinearOverlap] 
  1.13e-03s  8.63e-04d  [FindBigVerticalLinearOverlap] 
  1.88e-04s  2.64e-04d  [FindBigHorizontalLinearOverlap] #linears=451 
  3.28e-04s  2.66e-05d  [MergeClauses] #num_collisions=73 #num_merges=73 #num_saved_literals=212 
  8.32e-04s  0.00e+00d  [DetectDominanceRelations] 
  3.10e-03s  0.00e+00d  [PresolveToFixPoint] #num_loops=1 #num_dual_strengthening=1 
  8.47e-04s  0.00e+00d  [DetectDominanceRelations] 
  3.05e-03s  0.00e+00d  [PresolveToFixPoint] #num_loops=1 #num_dual_strengthening=1 
  1.83e-04s  0.00e+00d  [DetectDuplicateColumns] 
  1.10e-04s  0.00e+00d  [DetectDuplicateConstraints] 
[Symmetry] Graph for symmetry has 4'402 nodes and 13'274 arcs.
[Symmetry] Symmetry computation done. time: 0.000889422 dtime: 0.0013365
[SAT presolve] num removable Booleans: 87 / 501
[SAT presolve] num trivial clauses: 0
[SAT presolve] [0s] clauses:2'175 literals:6'261 vars:478 one_side_vars:200 simple_definition:65 singleton_clauses:0
[SAT presolve] [0.000198413s] clauses:2'175 literals:6'261 vars:478 one_side_vars:200 simple_definition:65 singleton_clauses:0
[SAT presolve] [0.000279085s] clauses:2'175 literals:6'261 vars:478 one_side_vars:200 simple_definition:65 singleton_clauses:0
  1.63e-04s  0.00e+00d  [DetectDuplicateConstraintsWithDifferentEnforcements] 
  5.98e-03s  2.26e-03d  [Probe] #probed=1'346 #new_binary_clauses=1'044 
  5.18e-04s  4.88e-04d  [MaxClique] 
  8.56e-04s  0.00e+00d  [DetectDominanceRelations] 
  3.11e-03s  0.00e+00d  [PresolveToFixPoint] #num_loops=1 #num_dual_strengthening=1 
  1.09e-03s  0.00e+00d  [ProcessAtMostOneAndLinear] 
  1.20e-04s  0.00e+00d  [DetectDuplicateConstraints] 
  1.05e-04s  0.00e+00d  [DetectDuplicateConstraintsWithDifferentEnforcements] 
  6.37e-04s  5.01e-05d  [DetectDominatedLinearConstraints] #relevant_constraints=801 #num_inclusions=279 
  1.27e-04s  0.00e+00d  [DetectDifferentVariables] 
  7.45e-04s  6.95e-05d  [ProcessSetPPC] #relevant_constraints=3'084 #num_inclusions=93 
  3.07e-04s  3.41e-05d  [TransformClausesToExactlyOne] #num_amos=525 #num_clauses=1'706 #num_checked=1'706 
  1.60e-04s  0.00e+00d  [DetectEncodedComplexDomains] 
  5.80e-05s  1.80e-07d  [FindAlmostIdenticalLinearConstraints] #num_tested_pairs=2 
  8.10e-04s  9.98e-04d  [FindBigAtMostOneAndLinearOverlap] 
  1.12e-03s  8.63e-04d  [FindBigVerticalLinearOverlap] 
  2.05e-04s  2.64e-04d  [FindBigHorizontalLinearOverlap] #linears=451 
  3.34e-04s  2.66e-05d  [MergeClauses] #num_collisions=73 #num_merges=73 #num_saved_literals=212 
  8.63e-04s  0.00e+00d  [DetectDominanceRelations] 
  3.12e-03s  0.00e+00d  [PresolveToFixPoint] #num_loops=1 #num_dual_strengthening=1 
  3.75e-05s  0.00e+00d  [MergeNoOverlap] 
  3.36e-05s  0.00e+00d  [MergeNoOverlap2D] 

Presolve summary:
  - 37 affine relations were detected.
  - rule 'TODO dual: only one blocking constraint?' was applied 870 times.
  - rule 'TODO dual: tighten at most one' was applied 8 times.
  - rule 'TODO linear inclusion: superset is equality' was applied 191 times.
  - rule 'affine: new relation' was applied 37 times.
  - rule 'at_most_one: removed literals' was applied 57 times.
  - rule 'at_most_one: size one' was applied 56 times.
  - rule 'at_most_one: transformed into max clique' was applied 2 times.
  - rule 'bool_or: implications' was applied 64 times.
  - rule 'bool_or: only one literal' was applied 12 times.
  - rule 'bool_or: removed enforcement literal' was applied 621 times.
  - rule 'deductions: 912 stored' was applied 1 time.
  - rule 'duplicate: merged rhs of linear constraint' was applied 8 times.
  - rule 'duplicate: removed constraint' was applied 9 times.
  - rule 'duplicate: removed enforced constraint' was applied 6 times.
  - rule 'enforcement: false literal' was applied 31 times.
  - rule 'enforcement: true literal' was applied 6 times.
  - rule 'exactly_one: removed literals' was applied 32 times.
  - rule 'exactly_one: satisfied' was applied 3 times.
  - rule 'exactly_one: singleton' was applied 3 times.
  - rule 'exactly_one: size two' was applied 29 times.
  - rule 'exactly_one: x and not(x)' was applied 6 times.
  - rule 'incompatible linear: add implication' was applied 129 times.
  - rule 'linear + amo: empty after processing' was applied 6 times.
  - rule 'linear + amo: extracted enforcement literal' was applied 62 times.
  - rule 'linear + amo: trivial linear constraint' was applied 1 time.
  - rule 'linear inclusion: redundant containing constraint' was applied 3 times.
  - rule 'linear inclusion: redundant included constraint' was applied 3 times.
  - rule 'linear inclusion: sparsify superset' was applied 1 time.
  - rule 'linear matrix: common vertical rectangle' was applied 8 times.
  - rule 'linear1: x in domain' was applied 26 times.
  - rule 'linear2: convert ax + by != cte to clauses' was applied 258 times.
  - rule 'linear2: convert implied ax + by == cte to clauses' was applied 130 times.
  - rule 'linear2: implied ax + by = cte has only one solution' was applied 8 times.
  - rule 'linear: always true' was applied 424 times.
  - rule 'linear: coefficient strengthening by increasing it' was applied 1 time.
  - rule 'linear: empty' was applied 1 time.
  - rule 'linear: extracted at most one (max)' was applied 1 time.
  - rule 'linear: fixed or dup variables' was applied 879 times.
  - rule 'linear: negative clause' was applied 1'303 times.
  - rule 'linear: negative reified and' was applied 78 times.
  - rule 'linear: never in domain' was applied 6 times.
  - rule 'linear: positive at most one' was applied 38 times.
  - rule 'linear: reduced variable domains' was applied 9 times.
  - rule 'linear: remapped using affine relations' was applied 23 times.
  - rule 'new_bool: integer encoding' was applied 24 times.
  - rule 'presolve: 75 unused variables removed.' was applied 1 time.
  - rule 'presolve: iteration' was applied 3 times.
  - rule 'probing: bool_or reduced to implication' was applied 26 times.
  - rule 'probing: simplified clauses' was applied 36 times.
  - rule 'setppc: bool_or in at_most_one' was applied 7 times.
  - rule 'setppc: removed dominated constraints' was applied 94 times.
  - rule 'variables: add encoding constraint' was applied 24 times.

Presolved satisfaction model '': (model_fingerprint: 0x3722983aed6a6f0f)
#Variables: 509 (442 primary variables)
  - 501 Booleans in [0,1]
  - 8 in [0,2]
#kAtMostOne: 56 (#literals: 240)
#kBoolAnd: 283 (#enforced: 283) (#literals: 752)
#kBoolAndClauses: 73 (#enforced: 73 #multi: 73) (#literals: 358)
#kBoolOr: 1'560 (#literals: 4'753)
#kExactlyOne: 52 (#literals: 206)
#kLinear1: 48 (#enforced: 48)
#kLinearN: 801 (#enforced: 120) (#terms: 5'507)
[Symmetry] Graph for symmetry has 4'155 nodes and 13'274 arcs.
[Symmetry] Symmetry computation done. time: 0.000807207 dtime: 0.00132168

Preloading model.
#Model   0.10s var:509/509 constraints:2873/2873

Starting search at 0.10s with 4 workers.
3 full problem subsolvers: [default_lp, max_lp, no_lp]
1 first solution subsolver: [fj]
2 interleaved subsolvers: [feasibility_pump, rins/rens]
2 helper subsolvers: [neighborhood_helper, synchronization_agent]

#Model   3.87s var:508/509 constraints:2871/2873
#Model   4.39s var:506/509 constraints:2863/2873
#Model  46.40s var:505/509 constraints:2862/2873
#Model  66.21s var:503/509 constraints:2842/2873
#Model 163.51s var:502/509 constraints:2840/2873
#Model 270.92s var:501/509 constraints:2838/2873
#Model 378.91s var:500/509 constraints:2836/2873
#Model 392.61s var:499/509 constraints:2835/2873
#Model 499.84s var:495/509 constraints:2798/2873
#Model 874.00s var:494/509 constraints:2778/2873
#Model 1551.52s var:493/509 constraints:2777/2873
#Model 1565.09s var:492/509 constraints:2751/2873
#Model 1565.26s var:490/509 constraints:2747/2873
#Model 1586.55s var:486/509 constraints:2700/2873
#Model 1602.18s var:484/509 constraints:2663/2873
#Model 1617.40s var:483/509 constraints:2646/2873
#Model 1624.14s var:482/509 constraints:2629/2873
#Model 1628.26s var:481/509 constraints:2611/2873
#Model 1633.30s var:480/509 constraints:2607/2873
#Model 1633.31s var:468/509 constraints:2431/2873
#Model 1633.68s var:440/509 constraints:2116/2873
#Done  1633.71s no_lp

Task timing                   n [     min,      max]      avg      dev     time         n [     min,      max]      avg      dev    dtime
        'default_lp':         1 [  27.23m,   27.23m]   27.23m   0.00ns   27.23m         2 [  2.37ms,   26.78m]   13.39m   13.39m   26.78m
  'feasibility_pump':      8099 [769.94us, 172.68ms]   1.60ms   1.93ms   12.92s      8098 [283.99us, 150.76ms] 303.61us   1.67ms    2.46s
                'fj':      5691 [ 98.55ms, 237.72ms] 142.31ms   9.99ms   13.50m      5691 [100.00ms, 100.10ms] 100.02ms  11.98us    9.49m
            'max_lp':         1 [  27.23m,   27.23m]   27.23m   0.00ns   27.23m         2 [ 85.87ms,   33.08m]   16.54m   16.54m   33.08m
             'no_lp':         1 [  27.23m,   27.23m]   27.23m   0.00ns   27.23m         2 [  2.20ms,   56.26m]   28.13m   28.13m   56.26m
         'rins/rens':      7464 [862.98us, 240.67ms] 108.50ms  39.73ms   13.50m      7461 [159.60us, 100.31ms]  68.20ms  37.05ms    8.48m

Search stats     Bools   Conflicts    Branches  Restarts  BacktrackToRoot   Backtrack     BoolPropag  IntegerPropag
  'default_lp':    501     175'070   5'702'402       931          890'789   1'297'242     68'702'079     67'166'532
      'max_lp':    501     112'818   6'998'681       532        1'106'597   1'505'583     83'070'330     90'850'129
       'no_lp':    501  15'003'207  20'597'715    52'355          456'714  15'373'607  1'349'695'358    294'255'117

SAT formula      Fixed  Equiv  Total  VarLeft  BinaryClauses  PermanentClauses  TemporaryClauses
  'default_lp':     29      6    501      466          3'150            23'213               784
      'max_lp':     26      5    501      470          2'734            32'961             4'262
       'no_lp':    105      5    501      391          3'064            54'625             4'482

SAT stats        ClassicMinim   LitRemoved  LitRemovedBinary   LitLearned  LitForgotten   Subsumed
  'default_lp':       154'562    2'010'854           971'487    4'601'732     2'732'966     70'259
      'max_lp':        95'326    1'109'629           581'008    2'452'994     1'216'303     40'454
       'no_lp':    13'369'164  217'501'172        74'139'338  359'021'185   282'233'030  4'136'008

Vivification       Clauses  Decisions  LitTrue  Subsumed  LitRemoved  DecisionReused  Conflicts
  'default_lp':    941'386  5'313'009        1    19'013     200'091         300'501      2'314
      'max_lp':  1'156'999  6'626'708        9    19'704     212'866         367'834      2'235
       'no_lp':    358'836  2'883'116        7    23'171     298'200          87'812      1'506

Clause deletion    at_true  l_and_not(l)  to_binary  sub_conflict  sub_extra  sub_decisions  sub_eager  sub_vivify  sub_probing  sub_inpro  blocked  eliminated   forgotten    promoted   conflicts
    'default_lp':   14'966            57         48        69'283        452          2'925        976      19'013        8'412     23'491        0           0      78'967     330'641     175'070
        'max_lp':   15'044            54         33        39'962        292          1'169        492      19'704        5'254     15'422        0           0      44'387     215'995     112'818
         'no_lp':   66'112           146        105     4'071'027     26'075        195'028     64'981      23'171       16'952    142'879        0           0  10'346'713  33'530'934  15'003'207

Lp stats         Component  Iterations  AddedCuts  OPTIMAL  DUAL_F.  DUAL_U.
  'default_lp':          1  18'751'057     69'209  227'745        0  123'434
      'max_lp':          1   8'915'358     65'445   32'650   83'191   25'226

Lp dimension        Final dimension of first component
  'default_lp':   487 rows, 351 columns, 24099 entries
      'max_lp':  1328 rows, 509 columns, 11142 entries

Lp debug         CutPropag  CutEqPropag   Adjust  Overflow        Bad  BadScaling
  'default_lp':          0           11  123'412         0  1'842'386           0
      'max_lp':          0           23   25'220         0  1'938'425           0

Lp pool          Constraints  Updates  Simplif  Merged  Shortened  Split  Strengthened       Cuts/Call
  'default_lp':        9'974   14'645        0       1        284      0             0  69'209/107'563
      'max_lp':       12'637   25'594        0       9        332      0         1'531  65'445/115'620

Lp Cut            max_lp  default_lp
          CG_FF:      99         458
           CG_K:       7         239
          CG_KL:       7         208
           CG_R:      58         477
          CG_RB:       -          40
         CG_RBP:       -          20
         Clique:     381           -
             IB:      17         123
       MIR_1_FF:     764         256
        MIR_1_K:      35          52
       MIR_1_KL:      52         183
        MIR_1_R:     424         227
       MIR_1_RB:       -           3
      MIR_1_RBP:       -           6
      MIR_1_RLT:   6'016           -
       MIR_2_FF:     704         551
        MIR_2_K:     129         146
       MIR_2_KL:      90         221
        MIR_2_R:     698         656
       MIR_2_RB:       5          17
      MIR_2_RBP:       2          24
       MIR_3_FF:     170         214
        MIR_3_K:      30          33
       MIR_3_KL:      17          62
        MIR_3_R:     217         273
       MIR_3_RB:       3          11
      MIR_3_RBP:       -          10
       MIR_4_FF:      44          59
        MIR_4_K:      12           7
       MIR_4_KL:       6          12
        MIR_4_R:     192         179
       MIR_4_RB:       2           6
      MIR_4_RBP:       -           9
       MIR_5_FF:      31          37
        MIR_5_K:       6          16
       MIR_5_KL:       2           4
        MIR_5_R:     166         143
       MIR_5_RB:       2           7
      MIR_5_RBP:       -           8
       MIR_6_FF:       9          22
        MIR_6_K:       -           7
       MIR_6_KL:       -           1
        MIR_6_R:     201         118
       MIR_6_RB:       1           4
      MIR_6_RBP:       1           4
   ZERO_HALF_FF:     522         197
    ZERO_HALF_K:      30          69
   ZERO_HALF_KL:       5          34
    ZERO_HALF_R:  54'184      63'724
   ZERO_HALF_RB:       6          15
  ZERO_HALF_RBP:      98          17

LNS stats       Improv/Calls  Closed  Difficulty  TimeLimit
  'rins/rens':     7461/7461     50%    7.93e-01       0.10

LS stats                                    Batches  Restarts/Perturbs    LinMoves   GenMoves  CompoundMoves  Bactracks  WeightUpdates  ScoreComputed
                             'fj_restart':      452                 90  16'445'640          0              0          0     11'271'447     23'729'758
                    'fj_restart_compound':      505                 89           0  6'367'683        273'779  3'046'805         16'961     97'575'168
                'fj_restart_compound_obj':      508                 72           0  6'514'693        261'033  3'126'698         16'291     97'992'853
            'fj_restart_compound_perturb':      478                 92           0  6'027'448        282'156  2'872'474         14'801     92'100'014
        'fj_restart_compound_perturb_obj':      248                 67           0  3'111'020        187'687  1'461'524          6'677     47'741'454
                       'fj_restart_decay':      254                 85   9'536'608          0              0          0        382'488      5'139'029
              'fj_restart_decay_compound':      264                 76           0  3'544'600        579'380  1'482'450          3'736     51'366'621
          'fj_restart_decay_compound_obj':      316                 76           0  4'259'027        697'301  1'780'685          4'397     61'645'686
      'fj_restart_decay_compound_perturb':      182                 78           0  2'312'791        379'472    966'481          2'615     35'345'999
  'fj_restart_decay_compound_perturb_obj':      274                 74           0  3'680'486        597'608  1'541'221          3'872     53'266'776
                   'fj_restart_decay_obj':      187                 92   7'003'903          0              0          0        281'597      3'787'145
               'fj_restart_decay_perturb':      261                 76   9'816'690          0              0          0        392'459      5'277'729
           'fj_restart_decay_perturb_obj':      282                100  10'572'557          0              0          0        424'811      5'708'161
                         'fj_restart_obj':      551                 83  19'824'530          0              0          0     13'993'150     30'458'921
                     'fj_restart_perturb':      440                 82  16'422'097          0              0          0     10'885'484     23'407'448
                 'fj_restart_perturb_obj':      489                 77  18'673'140          0              0          0     12'728'693     28'728'238

Solution repositories    Added  Queried  Synchro
    'alternative_path':      0        0        0
      'best_solutions':      0        0        0
   'fj solution hints':  1'301        0    1'301
        'lp solutions':  1'100    7'464    1'098
                'pump':      0        0

Improving bounds shared    Num  Sym
            'default_lp':    9    0
                'max_lp':   17    0
                 'no_lp':   73    0

Clauses shared    #Exported  #Imported  #BinaryRead  #BinaryTotal
   'default_lp':      6'010     68'626          903         1'206
       'max_lp':      5'826     65'988          797         1'206
        'no_lp':     65'760     11'770        1'206         1'206

LRAT_status: NA
CpSolverResponse summary:
status: INFEASIBLE
objective: NA
best_bound: NA
integers: 351
booleans: 501
conflicts: 15003207
branches: 20597715
propagations: 1349695358
integer_propagations: 294255117
restarts: 52355
lp_iterations: 0
walltime: 1633.76
usertime: 1633.76
deterministic_time: 8047.95
gap_integral: 0

{
  "board_size": 22,
  "parity_proved": 0,
  "target": 34,
  "child_id": 2277,
  "child_count": 2640,
  "partition": "unknown_pair_x_diag_plus_twos_x_diag_minus_twos",
  "build_seconds": 0.08037447929382324,
  "workers": 4,
  "requested_seed": 2026074377,
  "effective_seed": 2026074377,
  "main_diagonal_pair": [
    5,
    15
  ],
  "pair_index": 94,
  "diag_plus_twos": 17,
  "diag_minus_twos": 15,
  "pair_excess": 3,
  "residual_certificate_slack": 109,
  "analytic_minimum_line_defect": 22,
  "analytic_defect_details": {
    "row_costs": {
      "12": 6,
      "13": 3,
      "14": 0,
      "15": 0,
      "16": 0,
      "17": 0
    },
    "column_costs": {
      "12": 6,
      "13": 3,
      "14": 0,
      "15": 0,
      "16": 0,
      "17": 0
    },
    "plus_cost": 0,
    "minus_cost": 22,
    "row_column_minimum": 0
  },
  "maximal_line_constraints": 2455,
  "analytic_infeasible": false,
  "allowed_points": 242,
  "status": "INFEASIBLE",
  "proof_method": "cp_sat_all_lines_with_certificate_profile_cuts",
  "elapsed_seconds": 1633.7562658786774,
  "branches": 20597715,
  "conflicts": 15003207
}
